Model status
Time limit reached

# Primal solution values
Feasible
Objective 1
# Columns 34
s1 0
s2 1
s3 0
s4 0
x1 1
x2 0
x3 0
x4 0
x5 1
x6 1
x7 0
x8 0
x9 0
x10 1
x11 1
x12 1
x13 1
x14 0
x15 1
x16 0
x17 1
x18 0
x19 1
x20 0
x21 1
x22 1
x23 1
x24 0
x25 0
x26 1
x27 0
x28 0
x29 0
x30 0
# Rows 4
C1_ 786
C2_ 758.9999999999999
C3_ 887.9999999999999
C4_ 649

# Dual solution values
None

# Basis
HiGHS_basis_file v2
None
